(set-logic BV)

(synth-fun deobfucated ( (a (BitVec 64))  (d (BitVec 64))  ) (BitVec 64)
	(
		(Start (BitVec 64)
			(
				(bvnot Start)
				(bvxor Start Start)
				(bvand Start Start)
				(bvor Start Start)
				(bvneg Start)
				(bvadd Start Start)
				(bvmul Start Start)
				(bvsub Start Start)
				a d
			)
		)
	)
)

(constraint (= (deobfucated #x000000000a968c51 #x000000001dd8e84e) #xffffffffeebfa42e))
(constraint (= (deobfucated #x000000000b68c20d #x0000000000ea8800) #xffffffffff7e3ffe))
(constraint (= (deobfucated #x000000002593dd4a #x0000000025f3b0df) #xffffffffffb36f6b))
(constraint (= (deobfucated #x000000002eb33fe3 #x0000000013779e6c) #xffffffffdfbbfdfe))
(constraint (= (deobfucated #x000000002a01acdf #x000000002c483616) #xfffffffffdffffcc))
(constraint (= (deobfucated #x000000001b19973f #x0000000001c7db6c) #xfffffffffff9bfda))
(constraint (= (deobfucated #x00000000091cf2cc #x000000001d8ca1dd) #xffffffffebfc5eef))
(constraint (= (deobfucated #x0000000017160559 #x000000002f7116b9) #xfffffffff7aeeedf))
(constraint (= (deobfucated #x000000002b7fa013 #x00000000240e175f) #x0000000017fde8b3))
(constraint (= (deobfucated #x000000000a8dcae7 #x000000002255eb34) #xfffffffff97fdff2))
(constraint (= (deobfucated #x000000001f577059 #x000000001fb309b6) #xffffffffffeeefe6))
(constraint (= (deobfucated #x000000001263cd3c #x000000003ab1f8ed) #xffffffffd7ffd75f))
(constraint (= (deobfucated #x0000000004f05131 #x00000000047a9fb2) #x0000000003fff17e))
(constraint (= (deobfucated #x000000002e7d07fa #x000000002e88147b) #xfffffffffff7f3ff))
(constraint (= (deobfucated #x000000001c102608 #x00000000345dd6e8) #xffffffffefbfef1f))
(constraint (= (deobfucated #x000000001e2368ae #x000000000d18b1fc) #xfffffffff9defeb9))
(constraint (= (deobfucated #x000000002d1145cc #x00000000307dcc28) #xffffffffff937be3))
(constraint (= (deobfucated #x0000000006842d84 #x0000000000bf4968) #xffffffffffc7e47b))
(constraint (= (deobfucated #x000000000a09945b #x000000002d1a6e38) #xffffffffdeef77f6))
(constraint (= (deobfucated #x000000002af732a0 #x000000001c3dddd4) #xffffffffeffbfedf))
(check-synth)